\ Equation counts
\     Total        E        G        L        N        X        C        B
\	95	95	0	0
\
\ Variable counts
\                  x        b        i      s1s      s2s       sc       si
\     Total     cont   binary  integer     sos1     sos2    scont     sint
\	20	20

\ Nonzero counts
\     Total    const       NL      DLL
\
\
Minimize
 obj: [ + 12.5 x_1 * x_1 + 20.0 x_1 * x_2 + 16.5 x_1 * x_3 - 12.5 x_1 * x_4 + 23.5 x_1 * x_5 + 21.0 x_1 * x_6 - 16.5 x_1 * x_7 + 12.5 x_1 * x_8 + 7.0 x_1 * x_9 - 8.5 x_1 * x_10 + 3.5 x_1 * x_11 + 22.0 x_1 * x_12 + 10.5 x_1 * x_13 - 11.5 x_1 * x_14 - 19.5 x_1 * x_15 + 8.0 x_1 * x_16 - 3.5 x_1 * x_17 - 10.5 x_1 * x_18 - 24.0 x_1 * x_19 - 18.5 x_1 * x_20 + 20.0 x_2 * x_1 - 1.5 x_2 * x_2 + 8.5 x_2 * x_3 + 3.5 x_2 * x_4 - 12.0 x_2 * x_5 + 20.5 x_2 * x_6 - 11.0 x_2 * x_8 + 11.0 x_2 * x_9 + 4.5 x_2 * x_10 + 3.0 x_2 * x_11 - 6.5 x_2 * x_12 - 0.5 x_2 * x_14 - 17.5 x_2 * x_15 + 8.0 x_2 * x_16 + 12.5 x_2 * x_17 + 2.5 x_2 * x_18 - 23.5 x_2 * x_19 + 24.0 x_2 * x_20 + 16.5 x_3 * x_1 + 8.5 x_3 * x_2 - 4.5 x_3 * x_3 - 11.0 x_3 * x_4 + 0.5 x_3 * x_5 + 23.5 x_3 * x_6 + 10.5 x_3 * x_7 - 16.0 x_3 * x_8 + 24.5 x_3 * x_9 - 2.5 x_3 * x_10 - 5.0 x_3 * x_11 - 13.5 x_3 * x_12 - 11.0 x_3 * x_13 + 10.5 x_3 * x_14 + 6.0 x_3 * x_15 + 21.0 x_3 * x_16 - 1.0 x_3 * x_17 - 6.5 x_3 * x_18 - 17.5 x_3 * x_19 + 23.5 x_3 * x_20 - 12.5 x_4 * x_1 + 3.5 x_4 * x_2 - 11.0 x_4 * x_3 + 2.0 x_4 * x_4 - 24.5 x_4 * x_5 - 10.5 x_4 * x_6 - 19.5 x_4 * x_7 - 10.5 x_4 * x_8 - 8.0 x_4 * x_9 + 12.5 x_4 * x_10 - 20.5 x_4 * x_11 + 5.5 x_4 * x_12 + 23.0 x_4 * x_13 + 12.0 x_4 * x_14 + 9.0 x_4 * x_15 - 15.5 x_4 * x_16 + 6.5 x_4 * x_17 + 8.5 x_4 * x_18 - 3.5 x_4 * x_19 - 13.5 x_4 * x_20 + 23.5 x_5 * x_1 - 12.0 x_5 * x_2 + 0.5 x_5 * x_3 - 24.5 x_5 * x_4 + 18.5 x_5 * x_5 - 7.5 x_5 * x_6 - 20.5 x_5 * x_7 + 5.5 x_5 * x_8 + 5.5 x_5 * x_9 + 13.5 x_5 * x_10 + 5.0 x_5 * x_11 - 3.0 x_5 * x_12 + 17.5 x_5 * x_13 - 17.5 x_5 * x_14 + 22.0 x_5 * x_15 + 3.0 x_5 * x_17 - 9.5 x_5 * x_18 + 9.5 x_5 * x_19 - 14.0 x_5 * x_20 + 21.0 x_6 * x_1 + 20.5 x_6 * x_2 + 23.5 x_6 * x_3 - 10.5 x_6 * x_4 - 7.5 x_6 * x_5 + 1.0 x_6 * x_6 + 24.0 x_6 * x_7 - 3.5 x_6 * x_8 + 13.5 x_6 * x_9 + 1.0 x_6 * x_10 + 18.0 x_6 * x_11 - 17.5 x_6 * x_12 - 2.0 x_6 * x_13 - 10.5 x_6 * x_14 - 23.0 x_6 * x_15 + 13.0 x_6 * x_16 + 19.0 x_6 * x_17 - 22.0 x_6 * x_18 - 0.5 x_6 * x_19 - 7.5 x_6 * x_20 - 16.5 x_7 * x_1 + 10.5 x_7 * x_3 - 19.5 x_7 * x_4 - 20.5 x_7 * x_5 + 24.0 x_7 * x_6 + 20.5 x_7 * x_7 - 7.5 x_7 * x_8 + 8.0 x_7 * x_9 + 14.5 x_7 * x_10 - 21.0 x_7 * x_11 - 11.5 x_7 * x_12 - 17.5 x_7 * x_13 + 10.0 x_7 * x_14 - 20.0 x_7 * x_15 - 3.0 x_7 * x_16 - 11.5 x_7 * x_17 + 24.5 x_7 * x_18 - 4.5 x_7 * x_19 - 23.0 x_7 * x_20 + 12.5 x_8 * x_1 - 11.0 x_8 * x_2 - 16.0 x_8 * x_3 - 10.5 x_8 * x_4 + 5.5 x_8 * x_5 - 3.5 x_8 * x_6 - 7.5 x_8 * x_7 - 18.0 x_8 * x_8 + 22.0 x_8 * x_9 - 9.0 x_8 * x_10 + 1.5 x_8 * x_11 - 10.0 x_8 * x_12 - 12.0 x_8 * x_13 - 16.5 x_8 * x_14 - 23.5 x_8 * x_15 + 11.5 x_8 * x_16 - 20.0 x_8 * x_17 - 23.5 x_8 * x_18 + 12.5 x_8 * x_19 + 6.0 x_8 * x_20 + 7.0 x_9 * x_1 + 11.0 x_9 * x_2 + 24.5 x_9 * x_3 - 8.0 x_9 * x_4 + 5.5 x_9 * x_5 + 13.5 x_9 * x_6 + 8.0 x_9 * x_7 + 22.0 x_9 * x_8 + 17.0 x_9 * x_9 + 12.5 x_9 * x_10 + 2.5 x_9 * x_11 - 19.0 x_9 * x_12 - 20.5 x_9 * x_13 - 19.5 x_9 * x_14 - 16.5 x_9 * x_15 + 23.5 x_9 * x_16 - 15.5 x_9 * x_17 + 19.0 x_9 * x_18 - 11.5 x_9 * x_19 - 6.0 x_9 * x_20 - 8.5 x_10 * x_1 + 4.5 x_10 * x_2 - 2.5 x_10 * x_3 + 12.5 x_10 * x_4 + 13.5 x_10 * x_5 + 1.0 x_10 * x_6 + 14.5 x_10 * x_7 - 9.0 x_10 * x_8 + 12.5 x_10 * x_9 + 8.0 x_10 * x_10 + 19.0 x_10 * x_11 + 18.0 x_10 * x_12 - 6.0 x_10 * x_13 - 20.5 x_10 * x_14 + 3.5 x_10 * x_15 - 11.5 x_10 * x_16 + 23.0 x_10 * x_17 + 9.0 x_10 * x_18 + 24.0 x_10 * x_19 - 19.0 x_10 * x_20 + 3.5 x_11 * x_1 + 3.0 x_11 * x_2 - 5.0 x_11 * x_3 - 20.5 x_11 * x_4 + 5.0 x_11 * x_5 + 18.0 x_11 * x_6 - 21.0 x_11 * x_7 + 1.5 x_11 * x_8 + 2.5 x_11 * x_9 + 19.0 x_11 * x_10 + 4.0 x_11 * x_11 - 2.5 x_11 * x_12 - 4.0 x_11 * x_13 + 19.5 x_11 * x_14 + 21.5 x_11 * x_15 - 7.5 x_11 * x_16 - 17.0 x_11 * x_17 - 12.0 x_11 * x_18 - 2.5 x_11 * x_19 + 9.5 x_11 * x_20 + 22.0 x_12 * x_1 - 6.5 x_12 * x_2 - 13.5 x_12 * x_3 + 5.5 x_12 * x_4 - 3.0 x_12 * x_5 - 17.5 x_12 * x_6 - 11.5 x_12 * x_7 - 10.0 x_12 * x_8 - 19.0 x_12 * x_9 + 18.0 x_12 * x_10 - 2.5 x_12 * x_11 - 20.0 x_12 * x_12 - 15.0 x_12 * x_13 - 5.5 x_12 * x_14 - 18.0 x_12 * x_15 - 4.5 x_12 * x_16 - 23.5 x_12 * x_17 - 12.5 x_12 * x_18 + 24.0 x_12 * x_19 + 12.5 x_12 * x_20 + 10.5 x_13 * x_1 - 11.0 x_13 * x_3 + 23.0 x_13 * x_4 + 17.5 x_13 * x_5 - 2.0 x_13 * x_6 - 17.5 x_13 * x_7 - 12.0 x_13 * x_8 - 20.5 x_13 * x_9 - 6.0 x_13 * x_10 - 4.0 x_13 * x_11 - 15.0 x_13 * x_12 - 6.0 x_13 * x_13 - 23.0 x_13 * x_15 + 14.0 x_13 * x_16 + 20.5 x_13 * x_17 + 12.5 x_13 * x_18 - 4.0 x_13 * x_19 - 19.0 x_13 * x_20 - 11.5 x_14 * x_1 - 0.5 x_14 * x_2 + 10.5 x_14 * x_3 + 12.0 x_14 * x_4 - 17.5 x_14 * x_5 - 10.5 x_14 * x_6 + 10.0 x_14 * x_7 - 16.5 x_14 * x_8 - 19.5 x_14 * x_9 - 20.5 x_14 * x_10 + 19.5 x_14 * x_11 - 5.5 x_14 * x_12 - 5.5 x_14 * x_14 - 10.0 x_14 * x_15 + 9.0 x_14 * x_16 - 12.5 x_14 * x_17 - 23.5 x_14 * x_18 + 19.0 x_14 * x_19 - 6.5 x_14 * x_20 - 19.5 x_15 * x_1 - 17.5 x_15 * x_2 + 6.0 x_15 * x_3 + 9.0 x_15 * x_4 + 22.0 x_15 * x_5 - 23.0 x_15 * x_6 - 20.0 x_15 * x_7 - 23.5 x_15 * x_8 - 16.5 x_15 * x_9 + 3.5 x_15 * x_10 + 21.5 x_15 * x_11 - 18.0 x_15 * x_12 - 23.0 x_15 * x_13 - 10.0 x_15 * x_14 + 16.5 x_15 * x_15 - 20.0 x_15 * x_16 - 15.5 x_15 * x_17 - 16.0 x_15 * x_18 - 4.5 x_15 * x_19 - 9.5 x_15 * x_20 + 8.0 x_16 * x_1 + 8.0 x_16 * x_2 + 21.0 x_16 * x_3 - 15.5 x_16 * x_4 + 13.0 x_16 * x_6 - 3.0 x_16 * x_7 + 11.5 x_16 * x_8 + 23.5 x_16 * x_9 - 11.5 x_16 * x_10 - 7.5 x_16 * x_11 - 4.5 x_16 * x_12 + 14.0 x_16 * x_13 + 9.0 x_16 * x_14 - 20.0 x_16 * x_15 - 13.5 x_16 * x_16 - 2.5 x_16 * x_17 - 18.5 x_16 * x_18 + 18.0 x_16 * x_19 - 20.5 x_16 * x_20 - 3.5 x_17 * x_1 + 12.5 x_17 * x_2 - 1.0 x_17 * x_3 + 6.5 x_17 * x_4 + 3.0 x_17 * x_5 + 19.0 x_17 * x_6 - 11.5 x_17 * x_7 - 20.0 x_17 * x_8 - 15.5 x_17 * x_9 + 23.0 x_17 * x_10 - 17.0 x_17 * x_11 - 23.5 x_17 * x_12 + 20.5 x_17 * x_13 - 12.5 x_17 * x_14 - 15.5 x_17 * x_15 - 2.5 x_17 * x_16 + 5.5 x_17 * x_17 + 4.0 x_17 * x_18 + 22.5 x_17 * x_19 + 2.0 x_17 * x_20 - 10.5 x_18 * x_1 + 2.5 x_18 * x_2 - 6.5 x_18 * x_3 + 8.5 x_18 * x_4 - 9.5 x_18 * x_5 - 22.0 x_18 * x_6 + 24.5 x_18 * x_7 - 23.5 x_18 * x_8 + 19.0 x_18 * x_9 + 9.0 x_18 * x_10 - 12.0 x_18 * x_11 - 12.5 x_18 * x_12 + 12.5 x_18 * x_13 - 23.5 x_18 * x_14 - 16.0 x_18 * x_15 - 18.5 x_18 * x_16 + 4.0 x_18 * x_17 + 8.5 x_18 * x_18 - 14.0 x_18 * x_19 - 12.5 x_18 * x_20 - 24.0 x_19 * x_1 - 23.5 x_19 * x_2 - 17.5 x_19 * x_3 - 3.5 x_19 * x_4 + 9.5 x_19 * x_5 - 0.5 x_19 * x_6 - 4.5 x_19 * x_7 + 12.5 x_19 * x_8 - 11.5 x_19 * x_9 + 24.0 x_19 * x_10 - 2.5 x_19 * x_11 + 24.0 x_19 * x_12 - 4.0 x_19 * x_13 + 19.0 x_19 * x_14 - 4.5 x_19 * x_15 + 18.0 x_19 * x_16 + 22.5 x_19 * x_17 - 14.0 x_19 * x_18 - 10.0 x_19 * x_19 - 9.0 x_19 * x_20 - 18.5 x_20 * x_1 + 24.0 x_20 * x_2 + 23.5 x_20 * x_3 - 13.5 x_20 * x_4 - 14.0 x_20 * x_5 - 7.5 x_20 * x_6 - 23.0 x_20 * x_7 + 6.0 x_20 * x_8 - 6.0 x_20 * x_9 - 19.0 x_20 * x_10 + 9.5 x_20 * x_11 + 12.5 x_20 * x_12 - 19.0 x_20 * x_13 - 6.5 x_20 * x_14 - 9.5 x_20 * x_15 - 20.5 x_20 * x_16 + 2.0 x_20 * x_17 - 12.5 x_20 * x_18 - 9.0 x_20 * x_19 + 8.5 x_20 * x_20 ] + 39.0 x_1 + 45.0 x_2 + 2.0 x_3 + 1.0 x_4 + 45.0 x_5 + 34.0 x_6 + 18.0 x_7 - 20.0 x_8 - 16.0 x_9 + 42.0 x_10 + 20.0 x_11 + 0.0 x_12 + 38.0 x_13 - 35.0 x_14 - 2.0 x_15 + 42.0 x_16 + 17.0 x_17 - 40.0 x_18 - 23.0 x_19 - 47.0 x_20

Subject To
 e2: [  x_1 * x_2 ] = 0.0
 e3: [  x_1 * x_14 ] = 0.0
 e4: [  x_1 * x_19 ] = 0.0
 e5: [  x_1 * x_20 ] = 0.0
 e6: [  x_2 * x_1 ] = 0.0
 e7: [  x_2 * x_8 ] = 0.0
 e8: [  x_2 * x_10 ] = 0.0
 e9: [  x_2 * x_17 ] = 0.0
 e10: [  x_2 * x_19 ] = 0.0
 e11: [  x_2 * x_20 ] = 0.0
 e12: [  x_3 * x_1 ] = 0.0
 e13: [  x_3 * x_3 ] = 0.0
 e14: [  x_3 * x_9 ] = 0.0
 e15: [  x_3 * x_11 ] = 0.0
 e16: [  x_3 * x_16 ] = 0.0
 e17: [  x_4 * x_6 ] = 0.0
 e18: [  x_4 * x_10 ] = 0.0
 e19: [  x_4 * x_13 ] = 0.0
 e20: [  x_4 * x_17 ] = 0.0
 e21: [  x_4 * x_19 ] = 0.0
 e22: [  x_4 * x_20 ] = 0.0
 e23: [  x_5 * x_3 ] = 0.0
 e24: [  x_5 * x_4 ] = 0.0
 e25: [  x_5 * x_5 ] = 0.0
 e26: [  x_5 * x_8 ] = 0.0
 e27: [  x_5 * x_11 ] = 0.0
 e28: [  x_5 * x_12 ] = 0.0
 e29: [  x_6 * x_4 ] = 0.0
 e30: [  x_6 * x_6 ] = 0.0
 e31: [  x_6 * x_7 ] = 0.0
 e32: [  x_6 * x_14 ] = 0.0
 e33: [  x_6 * x_15 ] = 0.0
 e34: [  x_6 * x_19 ] = 0.0
 e35: [  x_7 * x_3 ] = 0.0
 e36: [  x_7 * x_4 ] = 0.0
 e37: [  x_7 * x_5 ] = 0.0
 e38: [  x_7 * x_6 ] = 0.0
 e39: [  x_7 * x_9 ] = 0.0
 e40: [  x_7 * x_11 ] = 0.0
 e41: [  x_7 * x_14 ] = 0.0
 e42: [  x_7 * x_16 ] = 0.0
 e43: [  x_8 * x_1 ] = 0.0
 e44: [  x_8 * x_3 ] = 0.0
 e45: [  x_8 * x_4 ] = 0.0
 e46: [  x_8 * x_9 ] = 0.0
 e47: [  x_8 * x_14 ] = 0.0
 e48: [  x_8 * x_15 ] = 0.0
 e49: [  x_8 * x_17 ] = 0.0
 e50: [  x_9 * x_4 ] = 0.0
 e51: [  x_9 * x_9 ] = 0.0
 e52: [  x_9 * x_12 ] = 0.0
 e53: [  x_9 * x_13 ] = 0.0
 e54: [  x_9 * x_20 ] = 0.0
 e55: [  x_10 * x_6 ] = 0.0
 e56: [  x_10 * x_11 ] = 0.0
 e57: [  x_10 * x_12 ] = 0.0
 e58: [  x_10 * x_14 ] = 0.0
 e59: [  x_10 * x_20 ] = 0.0
 e60: [  x_11 * x_5 ] = 0.0
 e61: [  x_11 * x_7 ] = 0.0
 e62: [  x_11 * x_8 ] = 0.0
 e63: [  x_11 * x_13 ] = 0.0
 e64: [  x_11 * x_15 ] = 0.0
 e65: [  x_12 * x_1 ] = 0.0
 e66: [  x_12 * x_8 ] = 0.0
 e67: [  x_13 * x_3 ] = 0.0
 e68: [  x_13 * x_4 ] = 0.0
 e69: [  x_13 * x_6 ] = 0.0
 e70: [  x_13 * x_7 ] = 0.0
 e71: [  x_13 * x_11 ] = 0.0
 e72: [  x_13 * x_13 ] = 0.0
 e73: [  x_13 * x_15 ] = 0.0
 e74: [  x_13 * x_17 ] = 0.0
 e75: [  x_13 * x_18 ] = 0.0
 e76: [  x_13 * x_20 ] = 0.0
 e77: [  x_14 * x_9 ] = 0.0
 e78: [  x_14 * x_11 ] = 0.0
 e79: [  x_14 * x_16 ] = 0.0
 e80: [  x_14 * x_18 ] = 0.0
 e81: [  x_16 * x_1 ] = 0.0
 e82: [  x_16 * x_8 ] = 0.0
 e83: [  x_16 * x_10 ] = 0.0
 e84: [  x_16 * x_17 ] = 0.0
 e85: [  x_17 * x_7 ] = 0.0
 e86: [  x_17 * x_14 ] = 0.0
 e87: [  x_17 * x_19 ] = 0.0
 e88: [  x_18 * x_17 ] = 0.0
 e89: [  x_18 * x_19 ] = 0.0
 e90: [  x_19 * x_2 ] = 0.0
 e91: [  x_19 * x_10 ] = 0.0
 e92: [  x_19 * x_12 ] = 0.0
 e93: [  x_19 * x_20 ] = 0.0
 e94: [  x_20 * x_8 ] = 0.0
 e95: [  x_20 * x_11 ] = 0.0
 e96: [  x_20 * x_12 ] = 0.0

Bounds
 x_1 <= 1.0
 x_2 <= 1.0
 x_3 <= 1.0
 x_4 <= 1.0
 x_5 <= 1.0
 x_6 <= 1.0
 x_7 <= 1.0
 x_8 <= 1.0
 x_9 <= 1.0
 x_10 <= 1.0
 x_11 <= 1.0
 x_12 <= 1.0
 x_13 <= 1.0
 x_14 <= 1.0
 x_15 <= 1.0
 x_16 <= 1.0
 x_17 <= 1.0
 x_18 <= 1.0
 x_19 <= 1.0
 x_20 <= 1.0

End